n_res = 4;
rc = [ 13, 8, 11, 19 ];
n_tasks = 30;
d = [ 3, 8, 5, 7, 1, 8, 10, 2, 8, 10, 5, 1, 4, 1, 7, 6, 10, 4, 10, 9, 6, 5, 3, 2, 4, 7, 9, 10, 10, 6 ];
rr = [| 0, 2, 0, 4, 0, 0, 0, 0, 1, 0, 0, 2, 0, 0, 0, 0, 10, 0, 0, 0, 0, 0, 0, 0, 1, 0, 6, 10, 4, 0
      | 0, 0, 0, 0, 0, 0, 0, 1, 0, 0, 1, 0, 5, 0, 2, 0, 0, 0, 0, 7, 0, 0, 2, 0, 0, 0, 0, 0, 0, 1
      | 7, 0, 0, 0, 8, 9, 0, 0, 0, 0, 0, 0, 0, 0, 0, 3, 0, 0, 3, 0, 8, 0, 0, 0, 0, 3, 0, 0, 0, 0
      | 0, 0, 9, 0, 0, 0, 7, 0, 0, 7, 0, 0, 0, 1, 0, 0, 0, 6, 0, 0, 0, 10, 0, 4, 0, 0, 0, 0, 0, 0 |];
suc = [ { 2 }, 
        { 1 }, 
        { 4 }, 
        { 3 }, 
        { 6 }, 
        { 5 }, 
        { 8 }, 
        { 7 }, 
        { 10 }, 
        { 9 }, 
        { 12 }, 
        { 11 }, 
        { 14 }, 
        { 13 }, 
        { 16 }, 
        { 15 }, 
        { 18 }, 
        { 17 }, 
        { 20 }, 
        { 19 }, 
        { 22 }, 
        { 21 }, 
        { 24 }, 
        { 23 }, 
        { 26 }, 
        { 25 }, 
        { 28 }, 
        { 27 }, 
        { 30 }, 
        { 29 }]; 
